(set-logic QF_S)
(declare-fun _var_0xINPUT_102215_() String)
(declare-fun __woorpje_diseq_pref0_() String)
(declare-fun __woorpje_diseq_suf_l0_() String)
(declare-fun __woorpje_diseq_suf_r0_() String)
(assert (=(str.++ _var_0xINPUT_102215_  "")(str.++  "SG2bAAob51" "")) )
(check-sat)
